(declare-fun _for_it_13 () Int)
(declare-fun _for_it_14 () Int)
(declare-fun _if_cond_2_val () (Array Int Int))
(declare-fun _if_cond_3_val () (Array Int Int))
(declare-fun _if_cond_4_val () (Array Int Int))

(assert (forall ((_for_it_15 Int) (kfdia Int) (kidia Int) (klev Int) (klon Int) (ncldtop Int))
  (=>
    (and
      (<= kidia (+ kfdia (- 1)))
      (<= 1 (+ klev (- 1)))
      (<= (+ _for_it_15 1) (+ kfdia (- 1)))
      (<= (+ kidia (- 1)) _for_it_15)
      (not (or (and (= (- (+ _for_it_13 1) 1) 4) (= (select _if_cond_2_val (- (+ (* _for_it_13 (- kfdia kidia) (+ klev (- 1))) _for_it_15 (* _for_it_14 (- kfdia kidia)) 2) kidia)) 1) (= (- (+ _for_it_15 1) 1) (+ _for_it_15 1)) (= (- (+ _for_it_14 1) 1) _for_it_14)) (and (= (select _if_cond_2_val (- (+ (* _for_it_13 (- kfdia kidia) (+ klev (- 1))) _for_it_15 (* _for_it_14 (- kfdia kidia)) 2) kidia)) 1) (= (- (+ _for_it_13 1) 1) _for_it_13) (= (- (+ _for_it_15 1) 1) (+ _for_it_15 1)) (= (- (+ _for_it_14 1) 1) _for_it_14)) (and (= (select _if_cond_2_val (- (+ (* _for_it_13 (- kfdia kidia) (+ klev (- 1))) _for_it_15 (* _for_it_14 (- kfdia kidia)) 1) kidia)) 1) (= (select _if_cond_2_val (- (+ (* _for_it_13 (- kfdia kidia) (+ klev (- 1))) _for_it_15 (* _for_it_14 (- kfdia kidia)) 2) kidia)) 1) (= (select _if_cond_3_val (- (+ (* _for_it_13 (- kfdia kidia) (+ klev (- 1))) _for_it_15 (* _for_it_14 (- kfdia kidia)) 2) kidia)) 1)) (and (= (select _if_cond_2_val (- (+ (* _for_it_13 (- kfdia kidia) (+ klev (- 1))) _for_it_15 (* _for_it_14 (- kfdia kidia)) 1) kidia)) 1) (= (select _if_cond_2_val (- (+ (* _for_it_13 (- kfdia kidia) (+ klev (- 1))) _for_it_15 (* _for_it_14 (- kfdia kidia)) 2) kidia)) 1) (= (select _if_cond_4_val (- (+ (* _for_it_13 (- kfdia kidia) (+ klev (- 1))) _for_it_15 (* _for_it_14 (- kfdia kidia)) 2) kidia)) 1)) (and (= (select _if_cond_2_val (- (+ (* _for_it_13 (- kfdia kidia) (+ klev (- 1))) _for_it_15 (* _for_it_14 (- kfdia kidia)) 1) kidia)) 1) (= _for_it_15 (+ _for_it_15 1)) (= (select _if_cond_2_val (- (+ (* _for_it_13 (- kfdia kidia) (+ klev (- 1))) _for_it_15 (* _for_it_14 (- kfdia kidia)) 2) kidia)) 1) (= _for_it_13 4)) (and (= (select _if_cond_2_val (- (+ (* _for_it_13 (- kfdia kidia) (+ klev (- 1))) _for_it_15 (* _for_it_14 (- kfdia kidia)) 1) kidia)) 1) (= (select _if_cond_2_val (- (+ (* _for_it_13 (- kfdia kidia) (+ klev (- 1))) _for_it_15 (* _for_it_14 (- kfdia kidia)) 2) kidia)) 1)) (and (= (select _if_cond_2_val (- (+ (* _for_it_13 (- kfdia kidia) (+ klev (- 1))) _for_it_15 (* _for_it_14 (- kfdia kidia)) 1) kidia)) 1) (= (select _if_cond_2_val (- (+ (* _for_it_13 (- kfdia kidia) (+ klev (- 1))) _for_it_15 (* _for_it_14 (- kfdia kidia)) 2) kidia)) 1) (= (select _if_cond_3_val (- (+ (* _for_it_13 (- kfdia kidia) (+ klev (- 1))) _for_it_15 (* _for_it_14 (- kfdia kidia)) 1) kidia)) 1)) (and (= _for_it_15 (+ _for_it_15 1)) (= (select _if_cond_3_val (- (+ (* _for_it_13 (- kfdia kidia) (+ klev (- 1))) _for_it_15 (* _for_it_14 (- kfdia kidia)) 1) kidia)) 1) (= (select _if_cond_2_val (- (+ (* _for_it_13 (- kfdia kidia) (+ klev (- 1))) _for_it_15 (* _for_it_14 (- kfdia kidia)) 2) kidia)) 1) (= (select _if_cond_2_val (- (+ (* _for_it_13 (- kfdia kidia) (+ klev (- 1))) _for_it_15 (* _for_it_14 (- kfdia kidia)) 1) kidia)) 1) (= (select _if_cond_3_val (- (+ (* _for_it_13 (- kfdia kidia) (+ klev (- 1))) _for_it_15 (* _for_it_14 (- kfdia kidia)) 2) kidia)) 1)) (and (= _for_it_15 (+ _for_it_15 1)) (= (select _if_cond_3_val (- (+ (* _for_it_13 (- kfdia kidia) (+ klev (- 1))) _for_it_15 (* _for_it_14 (- kfdia kidia)) 1) kidia)) 1) (= (select _if_cond_2_val (- (+ (* _for_it_13 (- kfdia kidia) (+ klev (- 1))) _for_it_15 (* _for_it_14 (- kfdia kidia)) 2) kidia)) 1) (= (select _if_cond_2_val (- (+ (* _for_it_13 (- kfdia kidia) (+ klev (- 1))) _for_it_15 (* _for_it_14 (- kfdia kidia)) 1) kidia)) 1) (= (select _if_cond_4_val (- (+ (* _for_it_13 (- kfdia kidia) (+ klev (- 1))) _for_it_15 (* _for_it_14 (- kfdia kidia)) 2) kidia)) 1)) (= (- (+ (* _for_it_13 (- kfdia kidia) (+ klev (- 1))) _for_it_15 (* _for_it_14 (- kfdia kidia)) 1) kidia) (- (+ (* _for_it_13 (- kfdia kidia) (+ klev (- 1))) _for_it_15 (* _for_it_14 (- kfdia kidia)) 2) kidia)) (and (= (select _if_cond_2_val (- (+ (* _for_it_13 (- kfdia kidia) (+ klev (- 1))) _for_it_15 (* _for_it_14 (- kfdia kidia)) 1) kidia)) 1) (= (select _if_cond_2_val (- (+ (* _for_it_13 (- kfdia kidia) (+ klev (- 1))) _for_it_15 (* _for_it_14 (- kfdia kidia)) 2) kidia)) 1) (= (- (+ (* _for_it_13 (- kfdia kidia) (+ klev (- 1))) _for_it_15 (* _for_it_14 (- kfdia kidia)) 1) kidia) (- (+ (* _for_it_13 (- kfdia kidia) (+ klev (- 1))) _for_it_15 (* _for_it_14 (- kfdia kidia)) 2) kidia))) (and (= (select _if_cond_2_val (- (+ (* _for_it_13 (- kfdia kidia) (+ klev (- 1))) _for_it_15 (* _for_it_14 (- kfdia kidia)) 1) kidia)) 1) (= (select _if_cond_2_val (- (+ (* _for_it_13 (- kfdia kidia) (+ klev (- 1))) _for_it_15 (* _for_it_14 (- kfdia kidia)) 2) kidia)) 1) (= (select _if_cond_4_val (- (+ (* _for_it_13 (- kfdia kidia) (+ klev (- 1))) _for_it_15 (* _for_it_14 (- kfdia kidia)) 1) kidia)) 1)) (and (= _for_it_15 (+ _for_it_15 1)) (= (select _if_cond_4_val (- (+ (* _for_it_13 (- kfdia kidia) (+ klev (- 1))) _for_it_15 (* _for_it_14 (- kfdia kidia)) 1) kidia)) 1) (= (select _if_cond_2_val (- (+ (* _for_it_13 (- kfdia kidia) (+ klev (- 1))) _for_it_15 (* _for_it_14 (- kfdia kidia)) 2) kidia)) 1) (= (select _if_cond_2_val (- (+ (* _for_it_13 (- kfdia kidia) (+ klev (- 1))) _for_it_15 (* _for_it_14 (- kfdia kidia)) 1) kidia)) 1) (= (select _if_cond_3_val (- (+ (* _for_it_13 (- kfdia kidia) (+ klev (- 1))) _for_it_15 (* _for_it_14 (- kfdia kidia)) 2) kidia)) 1)) (and (= _for_it_15 (+ _for_it_15 1)) (= (select _if_cond_4_val (- (+ (* _for_it_13 (- kfdia kidia) (+ klev (- 1))) _for_it_15 (* _for_it_14 (- kfdia kidia)) 1) kidia)) 1) (= (select _if_cond_2_val (- (+ (* _for_it_13 (- kfdia kidia) (+ klev (- 1))) _for_it_15 (* _for_it_14 (- kfdia kidia)) 2) kidia)) 1) (= (select _if_cond_2_val (- (+ (* _for_it_13 (- kfdia kidia) (+ klev (- 1))) _for_it_15 (* _for_it_14 (- kfdia kidia)) 1) kidia)) 1) (= (select _if_cond_4_val (- (+ (* _for_it_13 (- kfdia kidia) (+ klev (- 1))) _for_it_15 (* _for_it_14 (- kfdia kidia)) 2) kidia)) 1)) (and (= (select _if_cond_2_val (- (+ (* _for_it_13 (- kfdia kidia) (+ klev (- 1))) _for_it_15 (* _for_it_14 (- kfdia kidia)) 1) kidia)) 1) (= _for_it_14 (- (+ _for_it_14 1) 1)) (= _for_it_15 (- (+ _for_it_15 2) 1)) (= 4 (- (+ _for_it_13 1) 1))) (and (= 4 _for_it_13) (= _for_it_15 (+ _for_it_15 1)) (= (select _if_cond_2_val (- (+ (* _for_it_13 (- kfdia kidia) (+ klev (- 1))) _for_it_15 (* _for_it_14 (- kfdia kidia)) 2) kidia)) 1) (= (select _if_cond_2_val (- (+ (* _for_it_13 (- kfdia kidia) (+ klev (- 1))) _for_it_15 (* _for_it_14 (- kfdia kidia)) 1) kidia)) 1)) (and (= (select _if_cond_2_val (- (+ (* _for_it_13 (- kfdia kidia) (+ klev (- 1))) _for_it_15 (* _for_it_14 (- kfdia kidia)) 1) kidia)) 1) (= (select _if_cond_2_val (- (+ (* _for_it_13 (- kfdia kidia) (+ klev (- 1))) _for_it_15 (* _for_it_14 (- kfdia kidia)) 2) kidia)) 1) (or (= _for_it_15 (+ _for_it_15 1)) (and (= _for_it_15 (+ _for_it_15 1)) (= _for_it_13 4)) (and (= 4 _for_it_13) (= _for_it_15 (+ _for_it_15 1))))) (and (= (select _if_cond_2_val (- (+ (* _for_it_13 (- kfdia kidia) (+ klev (- 1))) _for_it_15 (* _for_it_14 (- kfdia kidia)) 1) kidia)) 1) (= (select _if_cond_2_val (- (+ (* _for_it_13 (- kfdia kidia) (+ klev (- 1))) _for_it_15 (* _for_it_14 (- kfdia kidia)) 2) kidia)) 1) (or (= _for_it_15 (+ _for_it_15 1)) (and (= 4 _for_it_13) (= _for_it_15 (+ _for_it_15 1))))) (and (= (select _if_cond_2_val (- (+ (* _for_it_13 (- kfdia kidia) (+ klev (- 1))) _for_it_15 (* _for_it_14 (- kfdia kidia)) 1) kidia)) 1) (= _for_it_13 (- (+ _for_it_13 1) 1)) (= _for_it_14 (- (+ _for_it_14 1) 1)) (= _for_it_15 (- (+ _for_it_15 2) 1))) (and (= (select _if_cond_2_val (- (+ (* _for_it_13 (- kfdia kidia) (+ klev (- 1))) _for_it_15 (* _for_it_14 (- kfdia kidia)) 1) kidia)) 1) (= (select _if_cond_2_val (- (+ (* _for_it_13 (- kfdia kidia) (+ klev (- 1))) _for_it_15 (* _for_it_14 (- kfdia kidia)) 2) kidia)) 1) (or (and (= _for_it_15 (+ _for_it_15 1)) (= _for_it_13 4)) (= _for_it_15 (+ _for_it_15 1)))) (and (= (select _if_cond_2_val (- (+ (* _for_it_13 (- kfdia kidia) (+ klev (- 1))) _for_it_15 (* _for_it_14 (- kfdia kidia)) 1) kidia)) 1) (= _for_it_15 (+ _for_it_15 1)) (= (select _if_cond_2_val (- (+ (* _for_it_13 (- kfdia kidia) (+ klev (- 1))) _for_it_15 (* _for_it_14 (- kfdia kidia)) 2) kidia)) 1))))
    )
    false
  )
))

(check-sat)